NAME : morphed22-2-16
COMMENT : Generated using the function morphInstances from the R-package netgen (Bossek,2015) - Number of clusters: 2 Alpha: 0.5
TYPE : TSP
DIMENSION : 22
EDGE_WEIGHT_TYPE : EUC_2D
NODE_COORD_SECTION
1 68.094507723 64.497330477
2 30.7968929344 46.2010021385
3 42.7979558696 32.3333871905
4 32.6801024356 58.5319869192
5 76.7992272224 86.6084497965
6 41.4595973312 89.594819761
7 20.1973312533 68.3207368106
8 76.4158271214 58.9107395441
9 65.8874195395 26.6119991165
10 34.5478858647 80.9018306975
11 43.6564836522 72.4921734955
12 58.7417911807 81.280711482
13 28.7383490631 59.6182923155
14 62.6161238456 57.1736516804
15 47.5108691697 37.4289427196
16 39.3431433513 82.701284614
17 76.3247102746 82.3841108705
18 57.5572886914 43.137326029
19 57.200669192 25.4022187281
20 21.2099749494 45.4784514601
21 89.5221933646 55.5999268536
22 62.8420261406 26.8320276672
EOF
